(declare-fun _substvar_97_ () (Array Bool Int))
(declare-fun _substvar_103_ () (Array Bool Int))
(declare-fun _substvar_125_ () Bool)
(declare-const v11 Bool)
(declare-const arr--8527122045400395218_639989839805400764-0 (Array Bool Int))
(assert (= arr--8527122045400395218_639989839805400764-0 (store _substvar_97_ false 3) (store (store arr--8527122045400395218_639989839805400764-0 v11 0) true 29)))
(assert (= arr--8527122045400395218_639989839805400764-0 (store (store arr--8527122045400395218_639989839805400764-0 _substvar_125_ 29) false 3) _substvar_103_))
(check-sat)
(check-sat)
